NAME PEOPLE_ALLOCATION
OBJSENSE
 MAX
ROWS
 N OBJ
 E LIM1
 E LIM2
 E LIM3
 E LIM4
 E LIM5
 E LIM6
 E LIM7
 E LIM8
 E LIM9
 E LIM10
 E LIM11
 E LIM12
COLUMNS
 X11 OBJ 0.15577334 LIM1 1
 X11 LIM4 1
 X12 OBJ 0.36423028 LIM1 1
 X12 LIM5 1
 X13 OBJ 0.35494941 LIM1 1
 X13 LIM6 1
 X14 OBJ 0.36423028 LIM1 1
 X14 LIM7 1
 X15 OBJ 0.35494941 LIM1 1
 X15 LIM8 1
 X16 OBJ -0.00044122338 LIM1 1
 X16 LIM9 1
 X17 OBJ 0.30757457 LIM1 1
 X17 LIM10 1
 X18 OBJ 0.32162699 LIM1 1
 X18 LIM11 1
 X19 OBJ 0.24086335 LIM1 1
 X19 LIM12 1
 X21 OBJ 0.24872956 LIM2 1
 X21 LIM4 1
 X22 OBJ 0.18830030 LIM2 1
 X22 LIM5 1
 X23 OBJ 0.45251310 LIM2 1
 X23 LIM6 1
 X24 OBJ 0.18830030 LIM2 1
 X24 LIM7 1
 X25 OBJ 0.45251310 LIM2 1
 X25 LIM8 1
 X26 OBJ -0.18480703 LIM2 1
 X26 LIM9 1
 X27 OBJ 0.091772422 LIM2 1
 X27 LIM10 1
 X28 OBJ 0.24430312 LIM2 1
 X28 LIM11 1
 X29 OBJ 0.16167119 LIM2 1
 X29 LIM12 1
 X31 OBJ 0.23486331 LIM3 1
 X31 LIM4 1
 X32 OBJ 0.31007376 LIM3 1
 X32 LIM5 1
 X33 OBJ 0.23486331 LIM3 1
 X33 LIM6 1
 X34 OBJ 0.31007376 LIM3 1
 X34 LIM7 1
 X35 OBJ 0.23486331 LIM3 1
 X35 LIM8 1
 X36 OBJ -0.072083220 LIM3 1
 X36 LIM9 1
 X37 OBJ 0.32012302 LIM3 1
 X37 LIM10 1
 X38 OBJ 0.31949946 LIM3 1
 X38 LIM11 1
 X39 OBJ 0.23486331 LIM3 1
 X39 LIM12 1
RHS
 RHS LIM1 3
 RHS LIM2 3
 RHS LIM3 3
 RHS LIM4 1
 RHS LIM5 1
 RHS LIM6 1
 RHS LIM7 1
 RHS LIM8 1
 RHS LIM9 1
 RHS LIM10 1
 RHS LIM11 1
 RHS LIM12 1
BOUNDS
 UP bnd X11 1
 UP bnd X12 1
 UP bnd X13 1
 UP bnd X14 1
 UP bnd X15 1
 UP bnd X16 1
 UP bnd X17 1
 UP bnd X18 1
 UP bnd X19 1
 UP bnd X21 1
 UP bnd X22 1
 UP bnd X23 1
 UP bnd X24 1
 UP bnd X25 1
 UP bnd X26 1
 UP bnd X27 1
 UP bnd X28 1
 UP bnd X29 1
 UP bnd X31 1
 UP bnd X32 1
 UP bnd X33 1
 UP bnd X34 1
 UP bnd X35 1
 UP bnd X36 1
 UP bnd X37 1
 UP bnd X38 1
 UP bnd X39 1
ENDATA
